[runlim] version:		1.10
[runlim] time limit:		311040000 seconds
[runlim] real time limit:	600 seconds
[runlim] space limit:		7759 MB
[runlim] argv[0]:		python3
[runlim] argv[1]:		-u
[runlim] argv[2]:		cp.py
[runlim] argv[3]:		P8
[runlim] start:			Sun Mar 22 23:29:49 2026
[runlim] main pid:		26226
Reading dataset from data/P8.txt...
Greedy span: 415 (416-1)
--------------------------------
Starting CP Optimizer with Initial UB = 416...
Mô hình CP đã xây dựng xong, bắt đầu giải...
 ! --------------------------------------------------- CP Optimizer 22.1.1.0 --
 ! Minimization problem - 471 variables, 53337 constraints
 ! Presolve      : 21415 extractables eliminated, 20559 constraints generated
 ! LogVerbosity         = Terse
 ! Initial process time : 0.36s (0.36s extraction + 0.00s propagation)
 !  . Log search space  : 3643.2 (before), 3643.2 (after)
 !  . Memory usage      : 18.6 MB (before), 18.6 MB (after)
 ! Using parallel search with 12 workers.
 ! ----------------------------------------------------------------------------
 !          Best Branches  Non-fixed    W       Branch decision
                        0        471                 -
 + New bound is 309
 *           309      228  1.00s        1      (gap is 0.00%)
 ! ----------------------------------------------------------------------------
 ! Search completed, 1 solution found.
 ! Best objective         : 309 (optimal - effective tol. is 0)
 ! Best bound             : 309
 ! ----------------------------------------------------------------------------
 ! Number of branches     : 7287
 ! Number of fails        : 246
 ! Total memory usage     : 316.3 MB (316.2 MB CP Optimizer + 0.1 MB Concert)
 ! Time spent in solve    : 1.00s (0.65s engine + 0.36s extraction)
 ! Search speed (br. / s) : 11210.8
 ! ----------------------------------------------------------------------------
--------------------------------
Optimal span found: 308 (309-1)
Total time taken: 2.46s
CP solution is valid.
[runlim] end:			Sun Mar 22 23:29:51 2026
[runlim] status:		ok
[runlim] result:		0
[runlim] children:		18
[runlim] real:			2.93 seconds
[runlim] time:			7.89 seconds
[runlim] space:			467.3 MB
[runlim] samples:		26
